250327.28,18.53,20.29
257147.8,18.03,19.75
240205.17,19.31,21.15
259115.45,17.9,19.6
240793.82,19.26,21.1
255612.31,18.14,19.87
258851.31,17.92,19.62
251124.59,18.47,20.23
248310.21,18.68,20.46
258519.38,17.94,19.65
242012.81,19.16,20.99
252141.21,18.39,20.15
246511.51,18.81,20.61
250672.41,18.5,20.26
256891.1,18.05,19.77
264259.13,17.55,19.22
248942.26,18.63,20.4
253713.16,18.28,20.02
257204.95,18.03,19.75
261610.61,17.73,19.42
